webassembly/ejemplos_results/3/folder3_json_72.txt
value = 3;
fgas = [1, 1, 1];
fsize = [1, 1, 1];
states = 
[|    in_0,     '.',  '.', '.', '.', '.', '.',     '.'
 |    in_0,     '.',  '.', '.', '.', '.', '.', local_0
 | local_1,    in_0,  '.', '.', '.', '.', '.',     '.'
 | local_1, local_1, in_0, '.', '.', '.', '.',     '.'
 |];
register_states = 
[| local_0, '.', '.', '.', '.'
 |    in_0, '.', '.', '.', '.'
 |    in_0, '.', '.', '.', '.'
 |    in_0, '.', '.', '.', '.'
 |];
program = [TEE(TEE1), O('local.get_0'), O('local.get_0')];
% time elapsed: 0.04 s
----------
==========
% time elapsed: 0.04 s
% [value > 2]
